p cnf 56 276
c p weight 10 0 0
c p weight -10 1 0
c p weight 11 1.0 0
c p weight -11 1 0
c p weight 21 0 0
c p weight -21 1 0
c p weight 22 1.0 0
c p weight -22 1 0
c p weight 27 0.707106781186548 0
c p weight 33 0.707106781186548 0
c p weight 39 0.707106781186548 0
c p weight 44 0 0
c p weight -44 1 0
c p weight 45 1.0 0
c p weight -45 1 0
6 -5 3 0
6 -5 4 0
-6 5 3 0
-6 5 4 0
6 5 -3 -4 0
-6 -5 -3 -4 0
7 3 -4 0
7 -3 4 0
-7 3 4 0
-7 -3 -4 0
8 9 -6 0
8 -6 7 0
-8 9 6 0
-8 6 7 0
8 -6 -3 0
-8 6 -3 0
8 -9 6 3 -7 0
-8 -9 -6 3 -7 0
9 -3 7 0
-9 3 7 0
-10 7 0
9 -10 -3 0
-9 -10 3 0
9 10 3 -7 0
-9 10 -3 -7 0
-11 7 0
9 -11 3 0
-9 -11 -3 0
9 11 -3 -7 0
-9 11 3 -7 0
12 -8 9 0
12 -8 7 0
-12 8 9 0
-12 8 7 0
12 8 -9 -7 0
-12 -8 -9 -7 0
13 9 -7 0
13 -9 7 0
-13 9 7 0
-13 -9 -7 0
14 -12 9 0
14 -12 2 0
-14 12 9 0
-14 12 2 0
14 -12 1 -13 0
14 -12 -1 13 0
-14 12 1 -13 0
-14 12 -1 13 0
14 12 -9 1 13 -2 0
14 12 -9 -1 -13 -2 0
-14 -12 -9 1 13 -2 0
-14 -12 -9 -1 -13 -2 0
16 9 -1 0
16 -9 1 0
-16 9 1 0
-16 -9 -1 0
15 13 -2 0
15 -13 2 0
-15 13 2 0
-15 -13 -2 0
17 -14 9 0
17 -14 15 0
-17 14 9 0
-17 14 15 0
17 14 -9 -15 0
-17 -14 -9 -15 0
18 9 -15 0
18 -9 15 0
-18 9 15 0
-18 -9 -15 0
19 20 -17 0
19 -17 18 0
-19 20 17 0
-19 17 18 0
19 -17 -9 0
-19 17 -9 0
19 -20 17 9 -18 0
-19 -20 -17 9 -18 0
20 -9 18 0
-20 9 18 0
-21 18 0
20 -21 -9 0
-20 -21 9 0
20 21 9 -18 0
-20 21 -9 -18 0
-22 18 0
20 -22 9 0
-20 -22 -9 0
20 22 -9 -18 0
-20 22 9 -18 0
23 -19 20 0
23 -19 18 0
-23 19 20 0
-23 19 18 0
23 19 -20 -18 0
-23 -19 -20 -18 0
24 20 -18 0
24 -20 18 0
-24 20 18 0
-24 -20 -18 0
25 -23 20 0
25 -23 24 0
-25 23 20 0
-25 23 24 0
25 -26 -23 0
-25 -26 23 0
25 26 23 -20 -24 0
-25 26 -23 -20 -24 0
26 20 -24 0
-26 20 24 0
27 -20 0
-27 20 0
28 -25 20 0
28 -25 2 0
-28 25 20 0
-28 25 2 0
28 -25 16 -26 0
28 -25 -16 26 0
-28 25 16 -26 0
-28 25 -16 26 0
28 25 -20 16 26 -2 0
28 25 -20 -16 -26 -2 0
-28 -25 -20 16 26 -2 0
-28 -25 -20 -16 -26 -2 0
30 20 -16 0
30 -20 16 0
-30 20 16 0
-30 -20 -16 0
29 26 -2 0
29 -26 2 0
-29 26 2 0
-29 -26 -2 0
31 32 -28 0
31 -28 30 0
-31 32 28 0
-31 28 30 0
31 -28 -2 0
-31 28 -2 0
31 -32 28 -30 2 0
-31 -32 -28 -30 2 0
32 30 -2 0
-32 30 2 0
33 -30 0
-33 30 0
34 -31 20 0
34 -31 32 0
-34 31 20 0
-34 31 32 0
34 -31 30 -29 0
34 -31 -30 29 0
-34 31 30 -29 0
-34 31 -30 29 0
34 31 -20 30 29 -32 0
34 31 -20 -30 -29 -32 0
-34 -31 -20 30 29 -32 0
-34 -31 -20 -30 -29 -32 0
36 20 -30 0
36 -20 30 0
-36 20 30 0
-36 -20 -30 0
35 29 -32 0
35 -29 32 0
-35 29 32 0
-35 -29 -32 0
37 -34 36 0
37 -34 32 0
-37 34 36 0
-37 34 32 0
37 -38 -34 0
-37 -38 34 0
37 38 34 -36 -32 0
-37 38 -34 -36 -32 0
38 36 -32 0
-38 36 32 0
39 -36 0
-39 36 0
40 -37 36 0
40 -37 38 0
-40 37 36 0
-40 37 38 0
40 37 -36 -38 0
-40 -37 -36 -38 0
41 36 -38 0
41 -36 38 0
-41 36 38 0
-41 -36 -38 0
42 43 -40 0
42 -40 41 0
-42 43 40 0
-42 40 41 0
42 -40 -36 0
-42 40 -36 0
42 -43 40 36 -41 0
-42 -43 -40 36 -41 0
43 -36 41 0
-43 36 41 0
-44 41 0
43 -44 -36 0
-43 -44 36 0
43 44 36 -41 0
-43 44 -36 -41 0
-45 41 0
43 -45 36 0
-43 -45 -36 0
43 45 -36 -41 0
-43 45 36 -41 0
46 -42 43 0
46 -42 41 0
-46 42 43 0
-46 42 41 0
46 42 -43 -41 0
-46 -42 -43 -41 0
47 43 -41 0
47 -43 41 0
-47 43 41 0
-47 -43 -41 0
48 -46 43 0
48 -46 35 0
-48 46 43 0
-48 46 35 0
48 -46 20 -47 0
48 -46 -20 47 0
-48 46 20 -47 0
-48 46 -20 47 0
48 46 -43 20 47 -35 0
48 46 -43 -20 -47 -35 0
-48 -46 -43 20 47 -35 0
-48 -46 -43 -20 -47 -35 0
50 43 -20 0
50 -43 20 0
-50 43 20 0
-50 -43 -20 0
49 47 -35 0
49 -47 35 0
-49 47 35 0
-49 -47 -35 0
51 -48 50 0
51 -48 49 0
-51 48 50 0
-51 48 49 0
51 -48 43 -35 0
51 -48 -43 35 0
-51 48 43 -35 0
-51 48 -43 35 0
51 48 -50 43 35 -49 0
51 48 -50 -43 -35 -49 0
-51 -48 -50 43 35 -49 0
-51 -48 -50 -43 -35 -49 0
53 50 -43 0
53 -50 43 0
-53 50 43 0
-53 -50 -43 0
52 35 -49 0
52 -35 49 0
-52 35 49 0
-52 -35 -49 0
54 -51 53 0
54 -51 52 0
-54 51 53 0
-54 51 52 0
54 -51 50 -49 0
54 -51 -50 49 0
-54 51 50 -49 0
-54 51 -50 49 0
54 51 -53 50 49 -52 0
54 51 -53 -50 -49 -52 0
-54 -51 -53 50 49 -52 0
-54 -51 -53 -50 -49 -52 0
56 53 -50 0
56 -53 50 0
-56 53 50 0
-56 -53 -50 0
55 49 -52 0
55 -49 52 0
-55 49 52 0
-55 -49 -52 0
